TiO2
1.0
        9.1904001236         0.0000000000         0.0000000000
        0.0000000000         9.1904001236         0.0000000000
        0.0000000000         0.0000000000         8.8809003830
   Nb In Ti    O
   3  3  18   48
Direct
     0.000000000         0.000000000         0.000000000
     0.000000000         0.000000000         0.333333343
     0.000000000         0.000000000         0.666666687
     0.000000000         0.500000000         0.000000000
     0.000000000         0.500000000         0.333333343
     0.000000000         0.500000000         0.666666687
     0.500000000         0.000000000         0.000000000
     0.500000000         0.000000000         0.333333343
     0.500000000         0.000000000         0.666666687
     0.500000000         0.500000000         0.000000000
     0.500000000         0.500000000         0.333333343
     0.500000000         0.500000000         0.666666687
     0.250000000         0.250000000         0.166666672
     0.250000000         0.250000000         0.500000000
     0.250000000         0.250000000         0.833333313
     0.250000000         0.750000000         0.166666672
     0.250000000         0.750000000         0.500000000
     0.250000000         0.750000000         0.833333313
     0.750000000         0.250000000         0.166666672
     0.750000000         0.250000000         0.500000000
     0.750000000         0.250000000         0.833333313
     0.750000000         0.750000000         0.166666672
     0.750000000         0.750000000         0.500000000
     0.750000000         0.750000000         0.833333313
     0.152669996         0.152669996         0.000000000
     0.152669996         0.152669996         0.333333343
     0.152669996         0.152669996         0.666666687
     0.152669996         0.652670026         0.000000000
     0.152669996         0.652670026         0.333333343
     0.152669996         0.652670026         0.666666687
     0.652670026         0.152669996         0.000000000
     0.652670026         0.152669996         0.333333343
     0.652670026         0.152669996         0.666666687
     0.652670026         0.652670026         0.000000000
     0.652670026         0.652670026         0.333333343
     0.652670026         0.652670026         0.666666687
     0.347330004         0.347330004         0.000000000
     0.347330004         0.347330004         0.333333343
     0.347330004         0.347330004         0.666666687
     0.347330004         0.847329974         0.000000000
     0.347330004         0.847329974         0.333333343
     0.347330004         0.847329974         0.666666687
     0.847329974         0.347330004         0.000000000
     0.847329974         0.347330004         0.333333343
     0.847329974         0.347330004         0.666666687
     0.847329974         0.847329974         0.000000000
     0.847329974         0.847329974         0.333333343
     0.847329974         0.847329974         0.666666687
     0.097329997         0.402669996         0.166666672
     0.097329997         0.402669996         0.500000000
     0.097329997         0.402669996         0.833333313
     0.097329997         0.902670026         0.166666672
     0.097329997         0.902670026         0.500000000
     0.097329997         0.902670026         0.833333313
     0.597329974         0.402669996         0.166666672
     0.597329974         0.402669996         0.500000000
     0.597329974         0.402669996         0.833333313
     0.597329974         0.902670026         0.166666672
     0.597329974         0.902670026         0.500000000
     0.597329974         0.902670026         0.833333313
     0.402669996         0.097329997         0.166666672
     0.402669996         0.097329997         0.500000000
     0.402669996         0.097329997         0.833333313
     0.402669996         0.597329974         0.166666672
     0.402669996         0.597329974         0.500000000
     0.402669996         0.597329974         0.833333313
     0.902670026         0.097329997         0.166666672
     0.902670026         0.097329997         0.500000000
     0.902670026         0.097329997         0.833333313
     0.902670026         0.597329974         0.166666672
     0.902670026         0.597329974         0.500000000
     0.902670026         0.597329974         0.833333313
